benchmark/results/graph__10-1000-0.10-04_18/graph__10-1000-0.10-04_18_QuintonOs_Benders_primal_sub.lp
\ This file has been generated by DOcplex
\ ENCODING=ISO-8859-1
\Problem name: Quinton Bounded Benders_primal_sub

Maximize
 obj: tau
Subject To
 c1: tau <= 0.000972762646
 c2: y_a0_proc_1 + y_a0_proc_2 + y_a0_proc_3 - tau = 0
 c3: y_a0_proc_1 <= 0
 c4: y_a0_proc_2 <= 1
 c5: y_a0_proc_3 <= 0
 c6: tau <= 0.001577287066
 c7: y_a1_proc_0 + y_a1_proc_1 - tau = 0
 c8: y_a1_proc_0 <= 1
 c9: y_a1_proc_1 <= 0
 c10: tau <= 0.003533568905
 c11: y_a2_proc_0 + y_a2_proc_2 + y_a2_proc_3 - tau = 0
 c12: y_a2_proc_0 <= 0
 c13: y_a2_proc_2 <= 0
 c14: y_a2_proc_3 <= 1
 c15: tau <= 0.000998003992
 c16: y_a3_proc_0 + y_a3_proc_2 + y_a3_proc_3 - tau = 0
 c17: y_a3_proc_0 <= 1
 c18: y_a3_proc_2 <= 0
 c19: y_a3_proc_3 <= 0
 c20: tau <= 0.001398601399
 c21: y_a4_proc_0 + y_a4_proc_1 + y_a4_proc_2 + y_a4_proc_3 - tau = 0
 c22: y_a4_proc_0 <= 0
 c23: y_a4_proc_1 <= 0
 c24: y_a4_proc_2 <= 1
 c25: y_a4_proc_3 <= 0
 c26: tau <= 0.001070663812
 c27: y_a5_proc_0 + y_a5_proc_1 + y_a5_proc_2 + y_a5_proc_3 - tau = 0
 c28: y_a5_proc_0 <= 0
 c29: y_a5_proc_1 <= 1
 c30: y_a5_proc_2 <= 0
 c31: y_a5_proc_3 <= 0
 c32: tau <= 0.001094091904
 c33: y_a6_proc_0 + y_a6_proc_1 + y_a6_proc_3 - tau = 0
 c34: y_a6_proc_0 <= 0
 c35: y_a6_proc_1 <= 0
 c36: y_a6_proc_3 <= 1
 c37: tau <= 0.000798722045
 c38: y_a7_proc_1 - tau = 0
 c39: y_a7_proc_1 <= 1
 c40: tau <= 0.000950570342
 c41: y_a8_proc_0 + y_a8_proc_2 + y_a8_proc_3 - tau = 0
 c42: y_a8_proc_0 <= 1
 c43: y_a8_proc_2 <= 0
 c44: y_a8_proc_3 <= 0
 c45: tau <= 0.003533568905
 c46: y_a9_proc_0 + y_a9_proc_1 + y_a9_proc_3 - tau = 0
 c47: y_a9_proc_0 <= 0
 c48: y_a9_proc_1 <= 0
 c49: y_a9_proc_3 <= 1
 c50: u_a0 - u_a1 - 634 y_a1_proc_0 - 1092 y_a1_proc_1 >= 0
 c51: u_a0 - u_a2 - 773 y_a2_proc_0 - 874 y_a2_proc_2 - 283 y_a2_proc_3 >= 0
 c52: u_a3 - u_a0 - 1111 y_a0_proc_1 - 1028 y_a0_proc_2 - 832 y_a0_proc_3 >= 0
 c53: u_a4 - u_a3 - 1002 y_a3_proc_0 - 1191 y_a3_proc_2 - 1004 y_a3_proc_3 >= 0
 c54: u_a5 - u_a2 - 773 y_a2_proc_0 - 874 y_a2_proc_2 - 283 y_a2_proc_3 >= -1
 c55: u_a6 - u_a5 - 1130 y_a5_proc_0 - 934 y_a5_proc_1 - 1112 y_a5_proc_2
      - 858 y_a5_proc_3 >= 0
 c56: u_a7 - u_a6 - 958 y_a6_proc_0 - 965 y_a6_proc_1 - 914 y_a6_proc_3 >= 0
 c57: u_a3 - u_a8 - 1052 y_a8_proc_0 - 1085 y_a8_proc_2 - 1282 y_a8_proc_3 >= 
      -1
 c58: u_a1 - u_a9 - 537 y_a9_proc_0 - 1209 y_a9_proc_1 - 283 y_a9_proc_3 >= 0
 c59: u_a8 - u_a4 - 929 y_a4_proc_0 - 1147 y_a4_proc_1 - 715 y_a4_proc_2
      - 796 y_a4_proc_3 >= 0
 c60: u_a7 - u_a8 - 1052 y_a8_proc_0 - 1085 y_a8_proc_2 - 1282 y_a8_proc_3 >= 0
 c61: u_a8 - u_a2 - 773 y_a2_proc_0 - 874 y_a2_proc_2 - 283 y_a2_proc_3 >= 0
 c62: - 929 y_a4_proc_0 - 1147 y_a4_proc_1 - 715 y_a4_proc_2 - 796 y_a4_proc_3
       >= -1
 c63: u_a2 - u_a6 - 958 y_a6_proc_0 - 965 y_a6_proc_1 - 914 y_a6_proc_3 >= 0
 c64: u_a1 - u_a5 - 1130 y_a5_proc_0 - 934 y_a5_proc_1 - 1112 y_a5_proc_2
      - 858 y_a5_proc_3 >= 0
 c65: u_a9 - u_a6 - 958 y_a6_proc_0 - 965 y_a6_proc_1 - 914 y_a6_proc_3 >= 0
 c66: u_a1 - u_a0 - 1111 y_a0_proc_1 >= -2578
 c67: u_a0 - u_a1 - 1092 y_a1_proc_1 >= -2551
 c68: u_a2 - u_a0 - 1028 y_a0_proc_2 >= -1296
 c69: u_a2 - u_a0 - 832 y_a0_proc_3 >= -1296
 c70: u_a0 - u_a2 - 874 y_a2_proc_2 >= -1269
 c71: u_a0 - u_a2 - 283 y_a2_proc_3 >= -1269
 c72: u_a3 - u_a0 - 1028 y_a0_proc_2 >= -1269
 c73: u_a3 - u_a0 - 832 y_a0_proc_3 >= -2551
 c74: u_a0 - u_a3 - 1191 y_a3_proc_2 >= -1296
 c75: u_a0 - u_a3 - 1004 y_a3_proc_3 >= -2578
 c76: u_a4 - u_a0 - 1028 y_a0_proc_2 >= 0
 c77: u_a4 - u_a0 - 832 y_a0_proc_3 >= -2564
 c78: u_a4 - u_a0 - 1111 y_a0_proc_1 >= -2564
 c79: u_a0 - u_a4 - 715 y_a4_proc_2 >= -1
 c80: u_a0 - u_a4 - 796 y_a4_proc_3 >= -2565
 c81: u_a0 - u_a4 - 1147 y_a4_proc_1 >= -2565
 c82: u_a5 - u_a0 - 1028 y_a0_proc_2 >= -1269
 c83: u_a5 - u_a0 - 832 y_a0_proc_3 >= -2551
 c84: u_a5 - u_a0 - 1111 y_a0_proc_1 >= -1269
 c85: u_a0 - u_a5 - 1112 y_a5_proc_2 >= -1296
 c86: u_a0 - u_a5 - 858 y_a5_proc_3 >= -2578
 c87: u_a0 - u_a5 - 934 y_a5_proc_1 >= -1296
 c88: u_a6 - u_a0 - 832 y_a0_proc_3 >= -1296
 c89: u_a6 - u_a0 - 1111 y_a0_proc_1 >= -2578
 c90: u_a0 - u_a6 - 914 y_a6_proc_3 >= -1269
 c91: u_a0 - u_a6 - 965 y_a6_proc_1 >= -2551
 c92: u_a7 - u_a0 - 1111 y_a0_proc_1 >= -1296
 c93: u_a0 - u_a7 - 1252 y_a7_proc_1 >= -1269
 c94: u_a8 - u_a0 - 1028 y_a0_proc_2 >= -1296
 c95: u_a8 - u_a0 - 832 y_a0_proc_3 >= -2578
 c96: u_a0 - u_a8 - 1085 y_a8_proc_2 >= -1269
 c97: u_a0 - u_a8 - 1282 y_a8_proc_3 >= -2551
 c98: u_a9 - u_a0 - 832 y_a0_proc_3 >= -1296
 c99: u_a9 - u_a0 - 1111 y_a0_proc_1 >= -2578
 c100: u_a0 - u_a9 - 283 y_a9_proc_3 >= -1269
 c101: u_a0 - u_a9 - 1209 y_a9_proc_1 >= -2551
 c102: u_a2 - u_a1 - 634 y_a1_proc_0 >= -1269
 c103: u_a1 - u_a2 - 773 y_a2_proc_0 >= -1296
 c104: u_a3 - u_a1 - 634 y_a1_proc_0 >= 1
 c105: u_a1 - u_a3 - 1002 y_a3_proc_0 >= -2
 c106: u_a4 - u_a1 - 634 y_a1_proc_0 >= -1296
 c107: u_a4 - u_a1 - 1092 y_a1_proc_1 >= -2578
 c108: u_a1 - u_a4 - 929 y_a4_proc_0 >= -1269
 c109: u_a1 - u_a4 - 1147 y_a4_proc_1 >= -2551
 c110: u_a5 - u_a1 - 634 y_a1_proc_0 >= -1296
 c111: u_a5 - u_a1 - 1092 y_a1_proc_1 >= -1296
 c112: u_a1 - u_a5 - 1130 y_a5_proc_0 >= -1269
 c113: u_a1 - u_a5 - 934 y_a5_proc_1 >= -1269
 c114: u_a6 - u_a1 - 634 y_a1_proc_0 >= -1282
 c115: u_a6 - u_a1 - 1092 y_a1_proc_1 >= -2564
 c116: u_a1 - u_a6 - 958 y_a6_proc_0 >= -1283
 c117: u_a1 - u_a6 - 965 y_a6_proc_1 >= -2565
 c118: u_a7 - u_a1 - 1092 y_a1_proc_1 >= -1296
 c119: u_a1 - u_a7 - 1252 y_a7_proc_1 >= -1269
 c120: u_a8 - u_a1 - 634 y_a1_proc_0 >= 2
 c121: u_a1 - u_a8 - 1052 y_a8_proc_0 >= -3
 c122: u_a9 - u_a1 - 634 y_a1_proc_0 >= -1269
 c123: u_a9 - u_a1 - 1092 y_a1_proc_1 >= -2551
 c124: u_a1 - u_a9 - 537 y_a9_proc_0 >= -1296
 c125: u_a1 - u_a9 - 1209 y_a9_proc_1 >= -2578
 c126: u_a3 - u_a2 - 874 y_a2_proc_2 >= -2557
 c127: u_a3 - u_a2 - 283 y_a2_proc_3 >= -1275
 c128: u_a3 - u_a2 - 773 y_a2_proc_0 >= -1275
 c129: u_a2 - u_a3 - 1191 y_a3_proc_2 >= -2572
 c130: u_a2 - u_a3 - 1004 y_a3_proc_3 >= -1290
 c131: u_a2 - u_a3 - 1002 y_a3_proc_0 >= -1290
 c132: u_a4 - u_a2 - 874 y_a2_proc_2 >= -1296
 c133: u_a4 - u_a2 - 283 y_a2_proc_3 >= -1296
 c134: u_a4 - u_a2 - 773 y_a2_proc_0 >= -2578
 c135: u_a2 - u_a4 - 715 y_a4_proc_2 >= -1269
 c136: u_a2 - u_a4 - 796 y_a4_proc_3 >= -1269
 c137: u_a2 - u_a4 - 929 y_a4_proc_0 >= -2551
 c138: u_a5 - u_a2 - 874 y_a2_proc_2 >= -2578
 c139: u_a5 - u_a2 - 283 y_a2_proc_3 >= -1296
 c140: u_a5 - u_a2 - 773 y_a2_proc_0 >= -2578
 c141: u_a2 - u_a5 - 1112 y_a5_proc_2 >= -2551
 c142: u_a2 - u_a5 - 858 y_a5_proc_3 >= -1269
 c143: u_a2 - u_a5 - 1130 y_a5_proc_0 >= -2551
 c144: u_a6 - u_a2 - 283 y_a2_proc_3 >= -1
 c145: u_a6 - u_a2 - 773 y_a2_proc_0 >= -2565
 c146: u_a2 - u_a6 - 914 y_a6_proc_3 >= 0
 c147: u_a2 - u_a6 - 958 y_a6_proc_0 >= -2564
 c148: u_a8 - u_a2 - 874 y_a2_proc_2 >= -2551
 c149: u_a8 - u_a2 - 283 y_a2_proc_3 >= -1269
 c150: u_a8 - u_a2 - 773 y_a2_proc_0 >= -1269
 c151: u_a2 - u_a8 - 1085 y_a8_proc_2 >= -2578
 c152: u_a2 - u_a8 - 1282 y_a8_proc_3 >= -1296
 c153: u_a2 - u_a8 - 1052 y_a8_proc_0 >= -1296
 c154: u_a9 - u_a2 - 283 y_a2_proc_3 >= 0
 c155: u_a9 - u_a2 - 773 y_a2_proc_0 >= -2564
 c156: u_a2 - u_a9 - 283 y_a9_proc_3 >= -1
 c157: u_a2 - u_a9 - 537 y_a9_proc_0 >= -2565
 c158: u_a4 - u_a3 - 1191 y_a3_proc_2 >= -1296
 c159: u_a4 - u_a3 - 1004 y_a3_proc_3 >= -2578
 c160: u_a4 - u_a3 - 1002 y_a3_proc_0 >= -1296
 c161: u_a3 - u_a4 - 715 y_a4_proc_2 >= -1269
 c162: u_a3 - u_a4 - 796 y_a4_proc_3 >= -2551
 c163: u_a3 - u_a4 - 929 y_a4_proc_0 >= -1269
 c164: u_a5 - u_a3 - 1191 y_a3_proc_2 >= -2578
 c165: u_a5 - u_a3 - 1004 y_a3_proc_3 >= -2578
 c166: u_a5 - u_a3 - 1002 y_a3_proc_0 >= -1296
 c167: u_a3 - u_a5 - 1112 y_a5_proc_2 >= -2551
 c168: u_a3 - u_a5 - 858 y_a5_proc_3 >= -2551
 c169: u_a3 - u_a5 - 1130 y_a5_proc_0 >= -1269
 c170: u_a6 - u_a3 - 1004 y_a3_proc_3 >= -1282
 c171: u_a6 - u_a3 - 1002 y_a3_proc_0 >= -1282
 c172: u_a3 - u_a6 - 914 y_a6_proc_3 >= -1283
 c173: u_a3 - u_a6 - 958 y_a6_proc_0 >= -1283
 c174: u_a8 - u_a3 - 1191 y_a3_proc_2 >= -2564
 c175: u_a8 - u_a3 - 1004 y_a3_proc_3 >= -2564
 c176: u_a8 - u_a3 - 1002 y_a3_proc_0 >= 0
 c177: u_a3 - u_a8 - 1085 y_a8_proc_2 >= -2565
 c178: u_a3 - u_a8 - 1282 y_a8_proc_3 >= -2565
 c179: u_a3 - u_a8 - 1052 y_a8_proc_0 >= -1
 c180: u_a9 - u_a3 - 1004 y_a3_proc_3 >= -1290
 c181: u_a9 - u_a3 - 1002 y_a3_proc_0 >= -1290
 c182: u_a3 - u_a9 - 283 y_a9_proc_3 >= -1275
 c183: u_a3 - u_a9 - 537 y_a9_proc_0 >= -1275
 c184: u_a5 - u_a4 - 715 y_a4_proc_2 >= -1269
 c185: u_a5 - u_a4 - 796 y_a4_proc_3 >= -2551
 c186: u_a5 - u_a4 - 929 y_a4_proc_0 >= -2551
 c187: u_a5 - u_a4 - 1147 y_a4_proc_1 >= -1269
 c188: u_a4 - u_a5 - 1112 y_a5_proc_2 >= -1296
 c189: u_a4 - u_a5 - 858 y_a5_proc_3 >= -2578
 c190: u_a4 - u_a5 - 1130 y_a5_proc_0 >= -2578
 c191: u_a4 - u_a5 - 934 y_a5_proc_1 >= -1296
 c192: u_a6 - u_a4 - 796 y_a4_proc_3 >= -1269
 c193: u_a6 - u_a4 - 929 y_a4_proc_0 >= -2551
 c194: u_a6 - u_a4 - 1147 y_a4_proc_1 >= -2551
 c195: u_a4 - u_a6 - 914 y_a6_proc_3 >= -1296
 c196: u_a4 - u_a6 - 958 y_a6_proc_0 >= -2578
 c197: u_a4 - u_a6 - 965 y_a6_proc_1 >= -2578
 c198: u_a7 - u_a4 - 1147 y_a4_proc_1 >= -1296
 c199: u_a4 - u_a7 - 1252 y_a7_proc_1 >= -1269
 c200: u_a8 - u_a4 - 715 y_a4_proc_2 >= -1296
 c201: u_a8 - u_a4 - 796 y_a4_proc_3 >= -2578
 c202: u_a8 - u_a4 - 929 y_a4_proc_0 >= -1296
 c203: u_a4 - u_a8 - 1085 y_a8_proc_2 >= -1269
 c204: u_a4 - u_a8 - 1282 y_a8_proc_3 >= -2551
 c205: u_a4 - u_a8 - 1052 y_a8_proc_0 >= -1269
 c206: u_a9 - u_a4 - 796 y_a4_proc_3 >= -1296
 c207: u_a9 - u_a4 - 929 y_a4_proc_0 >= -2578
 c208: u_a9 - u_a4 - 1147 y_a4_proc_1 >= -2578
 c209: u_a4 - u_a9 - 283 y_a9_proc_3 >= -1269
 c210: u_a4 - u_a9 - 537 y_a9_proc_0 >= -2551
 c211: u_a4 - u_a9 - 1209 y_a9_proc_1 >= -2551
 c212: u_a6 - u_a5 - 858 y_a5_proc_3 >= -1296
 c213: u_a6 - u_a5 - 1130 y_a5_proc_0 >= -2578
 c214: u_a6 - u_a5 - 934 y_a5_proc_1 >= -1296
 c215: u_a5 - u_a6 - 914 y_a6_proc_3 >= -1269
 c216: u_a5 - u_a6 - 958 y_a6_proc_0 >= -2551
 c217: u_a5 - u_a6 - 965 y_a6_proc_1 >= -1269
 c218: u_a7 - u_a5 - 934 y_a5_proc_1 >= 13
 c219: u_a5 - u_a7 - 1252 y_a7_proc_1 >= -14
 c220: u_a8 - u_a5 - 1112 y_a5_proc_2 >= -2551
 c221: u_a8 - u_a5 - 858 y_a5_proc_3 >= -2551
 c222: u_a8 - u_a5 - 1130 y_a5_proc_0 >= -1269
 c223: u_a5 - u_a8 - 1085 y_a8_proc_2 >= -2578
 c224: u_a5 - u_a8 - 1282 y_a8_proc_3 >= -2578
 c225: u_a5 - u_a8 - 1052 y_a8_proc_0 >= -1296
 c226: u_a9 - u_a5 - 858 y_a5_proc_3 >= -1269
 c227: u_a9 - u_a5 - 1130 y_a5_proc_0 >= -2551
 c228: u_a9 - u_a5 - 934 y_a5_proc_1 >= -1269
 c229: u_a5 - u_a9 - 283 y_a9_proc_3 >= -1296
 c230: u_a5 - u_a9 - 537 y_a9_proc_0 >= -2578
 c231: u_a5 - u_a9 - 1209 y_a9_proc_1 >= -1296
 c232: u_a7 - u_a6 - 965 y_a6_proc_1 >= -1296
 c233: u_a6 - u_a7 - 1252 y_a7_proc_1 >= -1269
 c234: u_a8 - u_a6 - 914 y_a6_proc_3 >= -1269
 c235: u_a8 - u_a6 - 958 y_a6_proc_0 >= -1269
 c236: u_a6 - u_a8 - 1282 y_a8_proc_3 >= -1296
 c237: u_a6 - u_a8 - 1052 y_a8_proc_0 >= -1296
 c238: u_a9 - u_a6 - 914 y_a6_proc_3 >= 0
 c239: u_a9 - u_a6 - 958 y_a6_proc_0 >= -2564
 c240: u_a9 - u_a6 - 965 y_a6_proc_1 >= -2564
 c241: u_a6 - u_a9 - 283 y_a9_proc_3 >= -1
 c242: u_a6 - u_a9 - 537 y_a9_proc_0 >= -2565
 c243: u_a6 - u_a9 - 1209 y_a9_proc_1 >= -2565
 c244: u_a9 - u_a7 - 1252 y_a7_proc_1 >= -1269
 c245: u_a7 - u_a9 - 1209 y_a9_proc_1 >= -1296
 c246: u_a9 - u_a8 - 1282 y_a8_proc_3 >= -1269
 c247: u_a9 - u_a8 - 1052 y_a8_proc_0 >= -1269
 c248: u_a8 - u_a9 - 283 y_a9_proc_3 >= -1296
 c249: u_a8 - u_a9 - 537 y_a9_proc_0 >= -1296

Bounds
End
