benchmark/results/graph__10-1000-0.10-04_18/graph__10-1000-0.10-04_18_QuintonOs_Benders_primal_sub.txt
solution for: Quinton Bounded Benders_primal_sub
objective: 0.000361141
status: OPTIMAL_SOLUTION(2)
u_a0=2.101
u_a1=0.872
u_a2=0.667
u_a3=2.481
u_a4=2.843
u_a6=0.337
u_a7=13.337
u_a8=3.101
u_a9=0.770
tau=0.000
y_a0_proc_2=0.000
y_a1_proc_0=0.000
y_a2_proc_3=0.000
y_a3_proc_0=0.000
y_a4_proc_2=0.000
y_a5_proc_1=0.000
y_a6_proc_3=0.000
y_a7_proc_1=0.000
y_a8_proc_0=0.000
y_a9_proc_3=0.000
